$comment
	Naphthalene	Dimer
	Reference: JACS128,9882 (2006) by J.-L. Bredas
$end

$molecule
  0  1
--
  0  1
C    0.9150000    2.3050000   -0.6511111
C   -0.2550000    2.5450000    0.2188889
C   -0.9850000    1.3750000    0.6288889
C   -0.5850000    0.0550000    0.4288889
C    0.6350000   -0.0950000   -0.2811111
C    1.3350000    1.0550000   -0.8011111
C   -1.3650000   -1.0650000    0.7088889
C   -0.8950000   -2.3250000    0.5188889
C    0.3250000   -2.5150000   -0.0811111
C    0.9950000   -1.4350000   -0.5511111
H    1.2150000    3.1450000   -1.1211111
H   -0.6750000    3.5150000    0.4488889
H   -1.5350000    1.5050000    1.5488889
H    2.1050000    0.9850000   -1.5211111
H   -2.3350000   -0.8550000    1.0588889
H   -1.4750000   -3.1250000    0.8288889
H    0.7050000   -3.4450000   -0.2211111
H    1.8750000   -1.6250000   -1.1611111
--
  0  1
C   -2.5411403    1.6721287   -3.8738846
C   -1.7611403    0.4821287   -3.9138846
C   -2.3611403   -0.6478713   -3.5038846
C   -3.7811403   -0.6778713   -3.2238846
C   -4.4611403    0.5221287   -3.0338846
C   -3.8111403    1.6621287   -3.4038846
C   -4.2811403   -1.9678713   -2.8038846
C   -5.5611403   -2.0178713   -2.3538846
C   -6.3511403   -0.7978713   -2.3238846
C   -5.7411403    0.4021287   -2.5938846
H   -2.0811403    2.6521287   -3.9938846
H   -0.7511403    0.5621287   -3.9638846
H   -1.9411403   -1.6078713   -3.5338846
H   -4.2911403    2.6221287   -3.4938846
H   -3.5511403   -2.7078713   -2.5438846
H   -6.0211403   -2.9278713   -1.9838846
H   -7.3411403   -0.7378713   -1.8438846
H   -6.4011403    1.2621287   -2.6038846
$end


$rem
        JOBTYPE      SP
        METHOD           BLYP                   ! Set the exchange-correlation functions
        BASIS        DZ*
        LRC_DFT          TRUE                   ! Control the application of long-range-corrected DFT
        OMEGA            260                    ! Set the range-separation parameter
        !GUI  =  2
        MAX_SCF_CYCLES   200
        SCF_PRINT_FRGM   TRUE           ! for printing out SCF results of each fragments
        SYM_IGNORE       TRUE           ! Necessary rem key for DC calculations.
        SCF_GUESS        FRAGMO         ! Use MOs of each fragments.
        STS_DC               FOCK       ! Use Frontier Molecular Orbital (FMO) approach
        SCF_CONVERGENCE      8          ! 5 For SP calculations/8 For OPT, vibrational analysis and SSG calculation; see p. 1083 in Q-Chem Manual 5.0
        STS_TRANS_DONOR      2-2
        STS_TRANS_ACCEPTOR   2-2
        SCF_FINAL_PRINT          2              ! Controls level of output from SCF procedure to Q-CHEM output file at the end of the; see p. 1084 in Q-Chem Manual 5.0
        XC_GRID  000100000974
$end
